SC444 file generated by VASPKIT         
   1.00000000000000     
    14.2565920252871337    0.0026496105491025    0.0026496105491025
     0.0026496105491025   14.2565920252871337    0.0026496105491025
     0.0026496105491025    0.0026496105491025   14.2565920252871337
   N    C 
     1   510
Direct
  0.5683252583065748  0.5683252583065748  0.5683252583065748
  0.4331810465247155  0.5648735148337467  0.4331810465247155
  0.5648735148337467  0.4331810465247155  0.4331810465247155
  0.4331810465247155  0.4331810465247155  0.5648735148337467
  0.0624913611962234  0.0624913611962234  0.0624913611962234
  0.0624658640892286  0.0624658640892286  0.3124918011524351
  0.0624371755150670  0.0624371755150670  0.5624746556897693
  0.0625243300017572  0.0625243300017572  0.8124781341596019
  0.0624658640892286  0.3124918011524351  0.0624658640892286
  0.0623929901278780  0.3124589633095350  0.3124589633095350
  0.0624497399709677  0.3125052008575343  0.5624575243429558
  0.0624699577299252  0.3125226081214423  0.8124513875156393
  0.0624371755150670  0.5624746556897693  0.0624371755150670
  0.0624497399709677  0.5624575243429558  0.3125052008575343
  0.0625526565827689  0.5624827648746259  0.5624827648746259
  0.0625890709174312  0.5625081697743815  0.8124708025023221
  0.0625243300017572  0.8124781341596019  0.0625243300017572
  0.0624699577299252  0.8124513875156393  0.3125226081214423
  0.0625890709174312  0.8124708025023221  0.5625081697743815
  0.0626382717204003  0.8124950849438775  0.8124950849438775
  0.3124918011524351  0.0624658640892286  0.0624658640892286
  0.3124589633095350  0.0623929901278780  0.3124589633095350
  0.3125052008575343  0.0624497399709677  0.5624575243429558
  0.3125226081214423  0.0624699577299252  0.8124513875156393
  0.3124589633095350  0.3124589633095350  0.0623929901278780
  0.3124778293356943  0.3124778293356943  0.3124778293356943
  0.3118149945922754  0.3118149945922754  0.5620799833904859
  0.3125329600474799  0.3125329600474799  0.8124059510190096
  0.3125052008575343  0.5624575243429558  0.0624497399709677
  0.3118149945922754  0.5620799833904859  0.3118149945922754
  0.3131030603716399  0.5621052013082455  0.5621052013082455
  0.3128698583470769  0.5624084629132208  0.8120799990014198
  0.3125226081214423  0.8124513875156393  0.0624699577299252
  0.3125329600474799  0.8124059510190096  0.3125329600474799
  0.3128698583470769  0.8120799990014198  0.5624084629132208
  0.3126192907172484  0.8123953474388493  0.8123953474388493
  0.5624746556897693  0.0624371755150670  0.0624371755150670
  0.5624575243429558  0.0624497399709677  0.3125052008575343
  0.5624827648746259  0.0625526565827689  0.5624827648746259
  0.5625081697743815  0.0625890709174312  0.8124708025023221
  0.5624575243429558  0.3125052008575343  0.0624497399709677
  0.5620799833904859  0.3118149945922754  0.3118149945922754
  0.5621052013082455  0.3131030603716399  0.5621052013082455
  0.5624084629132208  0.3128698583470769  0.8120799990014198
  0.5624827648746259  0.5624827648746259  0.0625526565827689
  0.5621052013082455  0.5621052013082455  0.3131030603716399
  0.5626283983557476  0.5626283983557476  0.8125059422459031
  0.5625081697743815  0.8124708025023221  0.0625890709174312
  0.5624084629132208  0.8120799990014198  0.3128698583470769
  0.5626283983557476  0.8125059422459031  0.5626283983557476
  0.5626243665563138  0.8128259270245380  0.8128259270245380
  0.8124781341596019  0.0625243300017572  0.0625243300017572
  0.8124513875156393  0.0624699577299252  0.3125226081214423
  0.8124708025023221  0.0625890709174312  0.5625081697743815
  0.8124950849438775  0.0626382717204003  0.8124950849438775
  0.8124513875156393  0.3125226081214423  0.0624699577299252
  0.8124059510190096  0.3125329600474799  0.3125329600474799
  0.8120799990014198  0.3128698583470769  0.5624084629132208
  0.8123953474388493  0.3126192907172484  0.8123953474388493
  0.8124708025023221  0.5625081697743815  0.0625890709174312
  0.8120799990014198  0.5624084629132208  0.3128698583470769
  0.8125059422459031  0.5626283983557476  0.5626283983557476
  0.8128259270245380  0.5626243665563138  0.8128259270245380
  0.8124950849438775  0.8124950849438775  0.0626382717204003
  0.8123953474388493  0.8123953474388493  0.3126192907172484
  0.8128259270245380  0.8128259270245380  0.5626243665563138
  0.8126492325968633  0.8126492325968633  0.8126492325968633
  0.0000066478891222  0.0000066478891222  0.0000066478891222
  0.9999647922804977  0.9999647922804977  0.2500132458120847
  0.9999962213603335  0.9999962213603335  0.5000064373110397
  0.0000491575933221  0.0000491575933221  0.7499967615062105
  0.9999647922804977  0.2500132458120847  0.9999647922804977
  0.9999304469058264  0.2499766297018197  0.2499766297018197
  0.9999004936440088  0.2500383291147467  0.4999822506881444
  0.9999388242366567  0.2500472492378622  0.7499615854730930
  0.9999962213603335  0.5000064373110397  0.9999962213603335
  0.9999004936440088  0.4999822506881444  0.2500383291147467
  0.9999727514581007  0.5000029843156223  0.5000029843156223
  0.0000564131136296  0.5000245830036985  0.7499821023733015
  0.0000491575933221  0.7499967615062105  0.0000491575933221
  0.9999388242366567  0.7499615854730930  0.2500472492378622
  0.0000564131136296  0.7499821023733015  0.5000245830036985
  0.0001617665711314  0.7500408251582522  0.7500408251582522
  0.2500132458120847  0.9999647922804977  0.9999647922804977
  0.2499766297018197  0.9999304469058264  0.2499766297018197
  0.2500383291147467  0.9999004936440088  0.4999822506881444
  0.2500472492378622  0.9999388242366567  0.7499615854730930
  0.2499766297018197  0.2499766297018197  0.9999304469058264
  0.2499887488003653  0.2499887488003653  0.2499887488003653
  0.2495695601994620  0.2495695601994620  0.4999866542661117
  0.2500180223059217  0.2500180223059217  0.7499051007494433
  0.2500383291147467  0.4999822506881444  0.9999004936440088
  0.2495695601994620  0.4999866542661117  0.2495695601994620
  0.2503196776768043  0.4998292765920824  0.4998292765920824
  0.2499677510072288  0.4998851167615417  0.7499908193559366
  0.2500472492378622  0.7499615854730930  0.9999388242366567
  0.2500180223059217  0.7499051007494433  0.2500180223059217
  0.2499677510072288  0.7499908193559366  0.4998851167615417
  0.2502989292156898  0.7498055258744154  0.7498055258744154
  0.5000064373110397  0.9999962213603335  0.9999962213603335
  0.4999822506881444  0.9999004936440088  0.2500383291147467
  0.5000029843156223  0.9999727514581007  0.5000029843156223
  0.5000245830036985  0.0000564131136296  0.7499821023733015
  0.4999822506881444  0.2500383291147467  0.9999004936440088
  0.4999866542661117  0.2495695601994620  0.2495695601994620
  0.4998292765920824  0.2503196776768043  0.4998292765920824
  0.4998851167615417  0.2499677510072288  0.7499908193559366
  0.5000029843156223  0.5000029843156223  0.9999727514581007
  0.4998292765920824  0.4998292765920824  0.2503196776768043
  0.5001215490848057  0.5001215490848057  0.7495691180510066
  0.5000245830036985  0.7499821023733015  0.0000564131136296
  0.4998851167615417  0.7499908193559366  0.2499677510072288
  0.5001215490848057  0.7495691180510066  0.5001215490848057
  0.5003067273167838  0.7504469902649573  0.7504469902649573
  0.7499967615062105  0.0000491575933221  0.0000491575933221
  0.7499615854730930  0.9999388242366567  0.2500472492378622
  0.7499821023733015  0.0000564131136296  0.5000245830036985
  0.7500408251582522  0.0001617665711314  0.7500408251582522
  0.7499615854730930  0.2500472492378622  0.9999388242366567
  0.7499051007494433  0.2500180223059217  0.2500180223059217
  0.7499908193559366  0.2499677510072288  0.4998851167615417
  0.7498055258744154  0.2502989292156898  0.7498055258744154
  0.7499821023733015  0.5000245830036985  0.0000564131136296
  0.7499908193559366  0.4998851167615417  0.2499677510072288
  0.7495691180510066  0.5001215490848057  0.5001215490848057
  0.7504469902649573  0.5003067273167838  0.7504469902649573
  0.7500408251582522  0.7500408251582522  0.0001617665711314
  0.7498055258744154  0.7498055258744154  0.2502989292156898
  0.7504469902649573  0.7504469902649573  0.5003067273167838
  0.7502311306331612  0.7502311306331612  0.7502311306331612
  0.0624610639355625  0.1874805126156748  0.1874805126156748
  0.0624008428663596  0.1874585596169413  0.4374727397575338
  0.0624472478058163  0.1875239706543203  0.6874715597973164
  0.0624873083129152  0.1875162471566855  0.9374620657448725
  0.0624008428663596  0.4374727397575338  0.1874585596169413
  0.0624566794988484  0.4374722298931991  0.4374722298931991
  0.0625330272526553  0.4375158807645589  0.6874501082080235
  0.0624716813821606  0.4375147442199172  0.9374813779069910
  0.0624472478058163  0.6874715597973164  0.1875239706543203
  0.0625330272526553  0.6874501082080235  0.4375158807645589
  0.0626263794902881  0.6874934268801465  0.6874934268801465
  0.0626006814054361  0.6874978601157384  0.9374899252142204
  0.0624873083129152  0.9374620657448725  0.1875162471566855
  0.0624716813821606  0.9374813779069910  0.4375147442199172
  0.0626006814054361  0.9374899252142204  0.6874978601157384
  0.0625437665524115  0.9375018822205591  0.9375018822205591
  0.3124596626474402  0.1874566156962273  0.1874566156962273
  0.3123905513325083  0.1874038891034286  0.4374097253262101
  0.3125093429595210  0.1874690086546478  0.6874147407807959
  0.3124919027698734  0.1874900343220257  0.9374372353225493
  0.3123905513325083  0.4374097253262101  0.1874038891034286
  0.3126763240467541  0.4374046651915589  0.4374046651915589
  0.3122946998245511  0.4376763358660655  0.6876205206665652
  0.3125434155378580  0.4375087033289902  0.9373609328317408
  0.3125093429595210  0.6874147407807959  0.1874690086546478
  0.3122946998245511  0.6876205206665652  0.4376763358660655
  0.3129358002468829  0.6871757880236204  0.6871757880236204
  0.3125881185321685  0.6874618179422403  0.9374078367552841
  0.3124919027698734  0.9374372353225493  0.1874900343220257
  0.3125434155378580  0.9373609328317408  0.4375087033289902
  0.3125881185321685  0.9374078367552841  0.6874618179422403
  0.3125352794074646  0.9374538428999886  0.9374538428999886
  0.5624067033279762  0.1872360552924854  0.1872360552924854
  0.5623684194188846  0.1875839757148738  0.4374704409676063
  0.5624367398147376  0.1876849863682382  0.6873686730880596
  0.5624739604700996  0.1876176466907211  0.9373641738050031
  0.5623684194188846  0.4374704409676063  0.1875839757148738
  0.5619469362175116  0.4387331264505839  0.6861992472456272
  0.5625068546363980  0.4375485573513466  0.9374287889389423
  0.5624367398147376  0.6873686730880596  0.1876849863682382
  0.5619469362175116  0.6861992472456272  0.4387331264505839
  0.5629123947352010  0.6885064083568175  0.6885064083568175
  0.5625624651292646  0.6875465198057088  0.9375753103790868
  0.5624739604700996  0.9373641738050031  0.1876176466907211
  0.5625068546363980  0.9374287889389423  0.4375485573513466
  0.5625624651292646  0.9375753103790868  0.6875465198057088
  0.5625241097464811  0.9375877238856248  0.9375877238856248
  0.8124298046808404  0.1875147642979481  0.1875147642979481
  0.8125311207686684  0.1874416910983968  0.4375295196532044
  0.8123533295679732  0.1877025690695702  0.6874290683868917
  0.8124616722937271  0.1875751718087073  0.9374539768395668
  0.8125311207686684  0.4375295196532044  0.1874416910983968
  0.8122322904386813  0.4375771369212818  0.4375771369212818
  0.8123600558741845  0.4377307607235893  0.6874897517304740
  0.8124784180955732  0.4375588439253679  0.9374966891646818
  0.8123533295679732  0.6874290683868917  0.1877025690695702
  0.8123600558741845  0.6874897517304740  0.4377307607235893
  0.8128914270593662  0.6877658757479609  0.6877658757479609
  0.8126080164720562  0.6875782442659353  0.9376820165664915
  0.8124616722937271  0.9374539768395668  0.1875751718087073
  0.8124784180955732  0.9374966891646818  0.4375588439253679
  0.8126080164720562  0.9376820165664915  0.6875782442659353
  0.8125337347954676  0.9375741688371477  0.9375741688371477
  0.9999686011396173  0.1249884719867669  0.1249884719867669
  0.9999411147428195  0.1249710392407441  0.3749883476506702
  0.9999334110100105  0.1250604358519049  0.6249890311032139
  0.9999874805450198  0.1250352828222349  0.8749761804315569
  0.9999411147428195  0.3749883476506702  0.1249710392407441
  0.9998941073104070  0.3750094701740174  0.3750094701740174
  0.9999588394814577  0.3750396576280514  0.6249648502290658
  0.9999744189277978  0.3750227229459305  0.8749623130689264
  0.9999334110100105  0.6249890311032139  0.1250604358519049
  0.9999588394814577  0.6249648502290658  0.3750396576280514
  0.0000884277826757  0.6250069005160689  0.6250069005160689
  0.0001203558279479  0.6250228479799794  0.8750431744783222
  0.9999874805450198  0.8749761804315569  0.1250352828222349
  0.9999744189277978  0.8749623130689264  0.3750227229459305
  0.0001203558279479  0.8750431744783222  0.6250228479799794
  0.0000841562276041  0.8750251609653130  0.8750251609653130
  0.2499821447068102  0.1249659148761655  0.1249659148761655
  0.2499707094278997  0.1249059874717537  0.3749674869059612
  0.2499505252564339  0.1249182996995730  0.6249596300827438
  0.2500058903974707  0.1249870545813164  0.8749442849576569
  0.2499707094278997  0.3749674869059612  0.1249059874717537
  0.2500587654662364  0.3750368150776783  0.3750368150776783
  0.2499961883102312  0.3749249427763123  0.6248436878016347
  0.2499985184126312  0.3749924282654326  0.8749332768537814
  0.2499505252564339  0.6249596300827438  0.1249182996995730
  0.2499961883102312  0.6248436878016347  0.3749249427763123
  0.2504519826355831  0.6246378301853865  0.6246378301853865
  0.2502680514213369  0.6249591552502904  0.8747560888865903
  0.2500058903974707  0.8749442849576569  0.1249870545813164
  0.2499985184126312  0.8749332768537814  0.3749924282654326
  0.2502680514213369  0.8747560888865903  0.6249591552502904
  0.2500805005284197  0.8749361733845848  0.8749361733845848
  0.5000002162700041  0.1248376271961398  0.1248376271961398
  0.4999499430334731  0.1249917943518750  0.3749758758893001
  0.4999497712311777  0.1251033454923050  0.6249013258883283
  0.4999728851793399  0.1249955737397180  0.8749995506758981
  0.4999499430334731  0.3749758758893001  0.1249917943518750
  0.5002390345215493  0.3751161745989663  0.3751161745989663
  0.4992629827844975  0.3760522867776681  0.6235227208552083
  0.5000001192292990  0.3751417919160985  0.8747864359725126
  0.4999497712311777  0.6249013258883283  0.1251033454923050
  0.4992629827844975  0.6235227208552083  0.3760522867776681
  0.5030718198424324  0.6248878944082893  0.6248878944082893
  0.5001065122122926  0.6250228081601850  0.8749808443568871
  0.4999728851793399  0.8749995506758981  0.1249955737397180
  0.5000001192292990  0.8747864359725126  0.3751417919160985
  0.5001065122122926  0.8749808443568871  0.6250228081601850
  0.5000856100015119  0.8751482888707586  0.8751482888707586
  0.7499622329722626  0.1250013615224996  0.1250013615224996
  0.7499646938996047  0.1249851787228698  0.3749948008018278
  0.7498902431757862  0.1251569492527236  0.6249431230138622
  0.7499627383062090  0.1251420813497133  0.8749429227293047
  0.7499646938996047  0.3749948008018278  0.1249851787228698
  0.7498046762109312  0.3750368701613584  0.3750368701613584
  0.7491911150599406  0.3757878716543945  0.6247987961591107
  0.7499121141817883  0.3751100146068682  0.8749054289131274
  0.7498902431757862  0.6249431230138622  0.1251569492527236
  0.7491911150599406  0.6247987961591107  0.3757878716543945
  0.7505848751103700  0.6254255107200467  0.6254255107200467
  0.7501926748812572  0.6251383974990781  0.8752546762206524
  0.7499627383062090  0.8749429227293047  0.1251420813497133
  0.7499121141817883  0.8749054289131274  0.3751100146068682
  0.7501926748812572  0.8752546762206524  0.6251383974990781
  0.7500769385944780  0.8751238910499707  0.8751238910499707
  0.1874805126156748  0.0624610639355625  0.1874805126156748
  0.1874585596169413  0.0624008428663596  0.4374727397575338
  0.1875239706543203  0.0624472478058163  0.6874715597973164
  0.1875162471566855  0.0624873083129152  0.9374620657448725
  0.1874566156962273  0.3124596626474402  0.1874566156962273
  0.1874038891034286  0.3123905513325083  0.4374097253262101
  0.1874690086546478  0.3125093429595210  0.6874147407807959
  0.1874900343220257  0.3124919027698734  0.9374372353225493
  0.1872360552924854  0.5624067033279762  0.1872360552924854
  0.1875839757148738  0.5623684194188846  0.4374704409676063
  0.1876849863682382  0.5624367398147376  0.6873686730880596
  0.1876176466907211  0.5624739604700996  0.9373641738050031
  0.1875147642979481  0.8124298046808404  0.1875147642979481
  0.1874416910983968  0.8125311207686684  0.4375295196532044
  0.1877025690695702  0.8123533295679732  0.6874290683868917
  0.1875751718087073  0.8124616722937271  0.9374539768395668
  0.4374727397575338  0.0624008428663596  0.1874585596169413
  0.4374722298931991  0.0624566794988484  0.4374722298931991
  0.4375158807645589  0.0625330272526553  0.6874501082080235
  0.4375147442199172  0.0624716813821606  0.9374813779069910
  0.4374097253262101  0.3123905513325083  0.1874038891034286
  0.4374046651915589  0.3126763240467541  0.4374046651915589
  0.4376763358660655  0.3122946998245511  0.6876205206665652
  0.4375087033289902  0.3125434155378580  0.9373609328317408
  0.4374704409676063  0.5623684194188846  0.1875839757148738
  0.4387331264505839  0.5619469362175116  0.6861992472456272
  0.4375485573513466  0.5625068546363980  0.9374287889389423
  0.4375295196532044  0.8125311207686684  0.1874416910983968
  0.4375771369212818  0.8122322904386813  0.4375771369212818
  0.4377307607235893  0.8123600558741845  0.6874897517304740
  0.4375588439253679  0.8124784180955732  0.9374966891646818
  0.6874715597973164  0.0624472478058163  0.1875239706543203
  0.6874501082080235  0.0625330272526553  0.4375158807645589
  0.6874934268801465  0.0626263794902881  0.6874934268801465
  0.6874978601157384  0.0626006814054361  0.9374899252142204
  0.6874147407807959  0.3125093429595210  0.1874690086546478
  0.6876205206665652  0.3122946998245511  0.4376763358660655
  0.6871757880236204  0.3129358002468829  0.6871757880236204
  0.6874618179422403  0.3125881185321685  0.9374078367552841
  0.6873686730880596  0.5624367398147376  0.1876849863682382
  0.6861992472456272  0.5619469362175116  0.4387331264505839
  0.6885064083568175  0.5629123947352010  0.6885064083568175
  0.6875465198057088  0.5625624651292646  0.9375753103790868
  0.6874290683868917  0.8123533295679732  0.1877025690695702
  0.6874897517304740  0.8123600558741845  0.4377307607235893
  0.6877658757479609  0.8128914270593662  0.6877658757479609
  0.6875782442659353  0.8126080164720562  0.9376820165664915
  0.9374620657448725  0.0624873083129152  0.1875162471566855
  0.9374813779069910  0.0624716813821606  0.4375147442199172
  0.9374899252142204  0.0626006814054361  0.6874978601157384
  0.9375018822205591  0.0625437665524115  0.9375018822205591
  0.9374372353225493  0.3124919027698734  0.1874900343220257
  0.9373609328317408  0.3125434155378580  0.4375087033289902
  0.9374078367552841  0.3125881185321685  0.6874618179422403
  0.9374538428999886  0.3125352794074646  0.9374538428999886
  0.9373641738050031  0.5624739604700996  0.1876176466907211
  0.9374287889389423  0.5625068546363980  0.4375485573513466
  0.9375753103790868  0.5625624651292646  0.6875465198057088
  0.9375877238856248  0.5625241097464811  0.9375877238856248
  0.9374539768395668  0.8124616722937271  0.1875751718087073
  0.9374966891646818  0.8124784180955732  0.4375588439253679
  0.9376820165664915  0.8126080164720562  0.6875782442659353
  0.9375741688371477  0.8125337347954676  0.9375741688371477
  0.1249884719867669  0.9999686011396173  0.1249884719867669
  0.1249710392407441  0.9999411147428195  0.3749883476506702
  0.1250604358519049  0.9999334110100105  0.6249890311032139
  0.1250352828222349  0.9999874805450198  0.8749761804315569
  0.1249659148761655  0.2499821447068102  0.1249659148761655
  0.1249059874717537  0.2499707094278997  0.3749674869059612
  0.1249182996995730  0.2499505252564339  0.6249596300827438
  0.1249870545813164  0.2500058903974707  0.8749442849576569
  0.1248376271961398  0.5000002162700041  0.1248376271961398
  0.1249917943518750  0.4999499430334731  0.3749758758893001
  0.1251033454923050  0.4999497712311777  0.6249013258883283
  0.1249955737397180  0.4999728851793399  0.8749995506758981
  0.1250013615224996  0.7499622329722626  0.1250013615224996
  0.1249851787228698  0.7499646938996047  0.3749948008018278
  0.1251569492527236  0.7498902431757862  0.6249431230138622
  0.1251420813497133  0.7499627383062090  0.8749429227293047
  0.3749883476506702  0.9999411147428195  0.1249710392407441
  0.3750094701740174  0.9998941073104070  0.3750094701740174
  0.3750396576280514  0.9999588394814577  0.6249648502290658
  0.3750227229459305  0.9999744189277978  0.8749623130689264
  0.3749674869059612  0.2499707094278997  0.1249059874717537
  0.3750368150776783  0.2500587654662364  0.3750368150776783
  0.3749249427763123  0.2499961883102312  0.6248436878016347
  0.3749924282654326  0.2499985184126312  0.8749332768537814
  0.3749758758893001  0.4999499430334731  0.1249917943518750
  0.3751161745989663  0.5002390345215493  0.3751161745989663
  0.3760522867776681  0.4992629827844975  0.6235227208552083
  0.3751417919160985  0.5000001192292990  0.8747864359725126
  0.3749948008018278  0.7499646938996047  0.1249851787228698
  0.3750368701613584  0.7498046762109312  0.3750368701613584
  0.3757878716543945  0.7491911150599406  0.6247987961591107
  0.3751100146068682  0.7499121141817883  0.8749054289131274
  0.6249890311032139  0.9999334110100105  0.1250604358519049
  0.6249648502290658  0.9999588394814577  0.3750396576280514
  0.6250069005160689  0.0000884277826757  0.6250069005160689
  0.6250228479799794  0.0001203558279479  0.8750431744783222
  0.6249596300827438  0.2499505252564339  0.1249182996995730
  0.6248436878016347  0.2499961883102312  0.3749249427763123
  0.6246378301853865  0.2504519826355831  0.6246378301853865
  0.6249591552502904  0.2502680514213369  0.8747560888865903
  0.6249013258883283  0.4999497712311777  0.1251033454923050
  0.6235227208552083  0.4992629827844975  0.3760522867776681
  0.6248878944082893  0.5030718198424324  0.6248878944082893
  0.6250228081601850  0.5001065122122926  0.8749808443568871
  0.6249431230138622  0.7498902431757862  0.1251569492527236
  0.6247987961591107  0.7491911150599406  0.3757878716543945
  0.6254255107200467  0.7505848751103700  0.6254255107200467
  0.6251383974990781  0.7501926748812572  0.8752546762206524
  0.8749761804315569  0.9999874805450198  0.1250352828222349
  0.8749623130689264  0.9999744189277978  0.3750227229459305
  0.8750431744783222  0.0001203558279479  0.6250228479799794
  0.8750251609653130  0.0000841562276041  0.8750251609653130
  0.8749442849576569  0.2500058903974707  0.1249870545813164
  0.8749332768537814  0.2499985184126312  0.3749924282654326
  0.8747560888865903  0.2502680514213369  0.6249591552502904
  0.8749361733845848  0.2500805005284197  0.8749361733845848
  0.8749995506758981  0.4999728851793399  0.1249955737397180
  0.8747864359725126  0.5000001192292990  0.3751417919160985
  0.8749808443568871  0.5001065122122926  0.6250228081601850
  0.8751482888707586  0.5000856100015119  0.8751482888707586
  0.8749429227293047  0.7499627383062090  0.1251420813497133
  0.8749054289131274  0.7499121141817883  0.3751100146068682
  0.8752546762206524  0.7501926748812572  0.6251383974990781
  0.8751238910499707  0.7500769385944780  0.8751238910499707
  0.1874805126156748  0.1874805126156748  0.0624610639355625
  0.1874566156962273  0.1874566156962273  0.3124596626474402
  0.1872360552924854  0.1872360552924854  0.5624067033279762
  0.1875147642979481  0.1875147642979481  0.8124298046808404
  0.1874585596169413  0.4374727397575338  0.0624008428663596
  0.1874038891034286  0.4374097253262101  0.3123905513325083
  0.1875839757148738  0.4374704409676063  0.5623684194188846
  0.1874416910983968  0.4375295196532044  0.8125311207686684
  0.1875239706543203  0.6874715597973164  0.0624472478058163
  0.1874690086546478  0.6874147407807959  0.3125093429595210
  0.1876849863682382  0.6873686730880596  0.5624367398147376
  0.1877025690695702  0.6874290683868917  0.8123533295679732
  0.1875162471566855  0.9374620657448725  0.0624873083129152
  0.1874900343220257  0.9374372353225493  0.3124919027698734
  0.1876176466907211  0.9373641738050031  0.5624739604700996
  0.1875751718087073  0.9374539768395668  0.8124616722937271
  0.4374727397575338  0.1874585596169413  0.0624008428663596
  0.4374097253262101  0.1874038891034286  0.3123905513325083
  0.4374704409676063  0.1875839757148738  0.5623684194188846
  0.4375295196532044  0.1874416910983968  0.8125311207686684
  0.4374722298931991  0.4374722298931991  0.0624566794988484
  0.4374046651915589  0.4374046651915589  0.3126763240467541
  0.4375771369212818  0.4375771369212818  0.8122322904386813
  0.4375158807645589  0.6874501082080235  0.0625330272526553
  0.4376763358660655  0.6876205206665652  0.3122946998245511
  0.4387331264505839  0.6861992472456272  0.5619469362175116
  0.4377307607235893  0.6874897517304740  0.8123600558741845
  0.4375147442199172  0.9374813779069910  0.0624716813821606
  0.4375087033289902  0.9373609328317408  0.3125434155378580
  0.4375485573513466  0.9374287889389423  0.5625068546363980
  0.4375588439253679  0.9374966891646818  0.8124784180955732
  0.6874715597973164  0.1875239706543203  0.0624472478058163
  0.6874147407807959  0.1874690086546478  0.3125093429595210
  0.6873686730880596  0.1876849863682382  0.5624367398147376
  0.6874290683868917  0.1877025690695702  0.8123533295679732
  0.6874501082080235  0.4375158807645589  0.0625330272526553
  0.6876205206665652  0.4376763358660655  0.3122946998245511
  0.6861992472456272  0.4387331264505839  0.5619469362175116
  0.6874897517304740  0.4377307607235893  0.8123600558741845
  0.6874934268801465  0.6874934268801465  0.0626263794902881
  0.6871757880236204  0.6871757880236204  0.3129358002468829
  0.6885064083568175  0.6885064083568175  0.5629123947352010
  0.6877658757479609  0.6877658757479609  0.8128914270593662
  0.6874978601157384  0.9374899252142204  0.0626006814054361
  0.6874618179422403  0.9374078367552841  0.3125881185321685
  0.6875465198057088  0.9375753103790868  0.5625624651292646
  0.6875782442659353  0.9376820165664915  0.8126080164720562
  0.9374620657448725  0.1875162471566855  0.0624873083129152
  0.9374372353225493  0.1874900343220257  0.3124919027698734
  0.9373641738050031  0.1876176466907211  0.5624739604700996
  0.9374539768395668  0.1875751718087073  0.8124616722937271
  0.9374813779069910  0.4375147442199172  0.0624716813821606
  0.9373609328317408  0.4375087033289902  0.3125434155378580
  0.9374287889389423  0.4375485573513466  0.5625068546363980
  0.9374966891646818  0.4375588439253679  0.8124784180955732
  0.9374899252142204  0.6874978601157384  0.0626006814054361
  0.9374078367552841  0.6874618179422403  0.3125881185321685
  0.9375753103790868  0.6875465198057088  0.5625624651292646
  0.9376820165664915  0.6875782442659353  0.8126080164720562
  0.9375018822205591  0.9375018822205591  0.0625437665524115
  0.9374538428999886  0.9374538428999886  0.3125352794074646
  0.9375877238856248  0.9375877238856248  0.5625241097464811
  0.9375741688371477  0.9375741688371477  0.8125337347954676
  0.1249884719867669  0.1249884719867669  0.9999686011396173
  0.1249659148761655  0.1249659148761655  0.2499821447068102
  0.1248376271961398  0.1248376271961398  0.5000002162700041
  0.1250013615224996  0.1250013615224996  0.7499622329722626
  0.1249710392407441  0.3749883476506702  0.9999411147428195
  0.1249059874717537  0.3749674869059612  0.2499707094278997
  0.1249917943518750  0.3749758758893001  0.4999499430334731
  0.1249851787228698  0.3749948008018278  0.7499646938996047
  0.1250604358519049  0.6249890311032139  0.9999334110100105
  0.1249182996995730  0.6249596300827438  0.2499505252564339
  0.1251033454923050  0.6249013258883283  0.4999497712311777
  0.1251569492527236  0.6249431230138622  0.7498902431757862
  0.1250352828222349  0.8749761804315569  0.9999874805450198
  0.1249870545813164  0.8749442849576569  0.2500058903974707
  0.1249955737397180  0.8749995506758981  0.4999728851793399
  0.1251420813497133  0.8749429227293047  0.7499627383062090
  0.3749883476506702  0.1249710392407441  0.9999411147428195
  0.3749674869059612  0.1249059874717537  0.2499707094278997
  0.3749758758893001  0.1249917943518750  0.4999499430334731
  0.3749948008018278  0.1249851787228698  0.7499646938996047
  0.3750094701740174  0.3750094701740174  0.9998941073104070
  0.3750368150776783  0.3750368150776783  0.2500587654662364
  0.3751161745989663  0.3751161745989663  0.5002390345215493
  0.3750368701613584  0.3750368701613584  0.7498046762109312
  0.3750396576280514  0.6249648502290658  0.9999588394814577
  0.3749249427763123  0.6248436878016347  0.2499961883102312
  0.3760522867776681  0.6235227208552083  0.4992629827844975
  0.3757878716543945  0.6247987961591107  0.7491911150599406
  0.3750227229459305  0.8749623130689264  0.9999744189277978
  0.3749924282654326  0.8749332768537814  0.2499985184126312
  0.3751417919160985  0.8747864359725126  0.5000001192292990
  0.3751100146068682  0.8749054289131274  0.7499121141817883
  0.6249890311032139  0.1250604358519049  0.9999334110100105
  0.6249596300827438  0.1249182996995730  0.2499505252564339
  0.6249013258883283  0.1251033454923050  0.4999497712311777
  0.6249431230138622  0.1251569492527236  0.7498902431757862
  0.6249648502290658  0.3750396576280514  0.9999588394814577
  0.6248436878016347  0.3749249427763123  0.2499961883102312
  0.6235227208552083  0.3760522867776681  0.4992629827844975